num_nodes = 7;
% Depots
nodes = {0,1,2,3,4,5,6,7,8,9,10,11};
num_facilities = 2;
facilities = {0,11};
storageCapacity = array1d(facilities,[100,100]);
fixcost = array1d(facilities,[4,2000]);
% Vehicles
num_vehicles = 5;
vehicles = {1,2,3,4,5};
utilityCost = [100,100,100,100,100];
transportCapacity = 5;
% Customers
num_customers = 5;
customers = {1,2,3,4,5};
demandProb = array2d(customers, 0..transportCapacity, 
 [0,0,1,0,0,0,
 0,0,1,0,0,0,
 0,0,1,0,0,0,
 0,0,1,0,0,0,
 0,0,1,0,0,0,
 0,0,1,0,0,0,
 0,0,1,0,0,0,
 0,0,1,0,0,0,
 0,0,1,0,0,0,
 0,0,1,0,0,0,
]);
% Travel Cost
travelCost = array2d(nodes, nodes,
[0,9,10,4,8,9,10,19,16,9,13,13,
9,0,2,13,10,13,9,12,20,11,7,7,
10,2,0,14,9,14,11,10,19,13,9,9,
4,13,14,0,11,7,10,22,18,16,15,15,
8,10,9,11,0,16,16,13,10,20,17,17,
9,13,14,7,16,0,5,24,25,10,11,11,
10,9,11,10,16,5,0,21,26,5,6,6,
19,12,10,22,13,24,21,0,19,22,18,18,
16,20,19,18,10,25,26,19,0,30,27,27,
9,11,13,8,16,2,3,23,25,8,9,9,
13,7,9,15,17,11,6,18,27,4,0,0,
13,7,9,15,17,11,6,18,27,4,0,0
]);

numSubsets = 1023;
customersInSubset = [{1}, {2}, {1, 2}, {3}, {1, 3}, {2, 3}, {1, 2, 3}, {4}, {1, 4}, {2, 4}, {1, 2, 4}, {3, 4}, {1, 3, 4}, {2, 3, 4}, {1, 2, 3, 4}, {5}, {1, 5}, {2, 5}, {1, 2, 5}, {3, 5}, {1, 3, 5}, {2, 3, 5}, {1, 2, 3, 5}, {4, 5}, {1, 4, 5}, {2, 4, 5}, {1, 
2, 4, 5}, {3, 4, 5}, {1, 3, 4, 5}, {2, 3, 4, 5}, {1, 2, 3, 4, 5}];
